<instance format="XCSP3" type="COP">
  <variables>
    <var id="x" note="x is the number of unused bins"> 0..24 </var>
    <array id="b" note="b[i][j] indicates the weight of the jth object put in the ith bin. It is 0 if there is no object at this place." size="[24][3]"> 0 250 252 254 259 261 262 264 265 268..270 276 278 281..283 285 286 290 296 301 302 305 327 328 334 335 340 347 352 355 358 360 361 372 380 388 389 396 416 422 432 433 462 463 469 483 484 489 496 </array>
  </variables>
  <constraints>
    <group>
      <mdd>
        <list> %... </list>
        <transitions> (root,0,n3)(root,250,n3)(root,252,n5)(root,254,n5)(root,259,n7)(root,261,n8)(root,262,n10)(root,264,n13)(root,265,n15)(root,268,n16)(root,269,n18)(root,270,n20)(root,276,n22)(root,278,n25)(root,281,n27)(root,282,n29)(root,283,n30)(root,285,n32)(root,286,n33)(root,290,n35)(root,296,n37)(root,301,n39)(root,302,n41)(root,305,n43)(root,327,n45)(root,328,n47)(root,334,n49)(root,335,n51)(root,340,n53)(root,347,n54)(root,352,n55)(root,355,n56)(root,358,n57)(root,360,n58)(root,361,n59)(root,372,n61)(root,380,n62)(root,388,n63)(root,389,n65)(root,396,n66)(root,416,n67)(root,422,n68)(root,432,n69)(root,433,n70)(root,462,n71)(root,463,n72)(root,469,n73)(root,483,n74)(root,484,n75)(root,489,n76)(root,496,n77)(n3,0,n4)(n4,0,nodeT)(n5,0,n4)(n5,250,n4)(n5,252,n6)(n6,0,nodeT)(n6,250,nodeT)(n6,252,nodeT)(n7,0,n4)(n7,250,n4)(n7,252,n6)(n7,254,n6)(n8,0,n4)(n8,250,n4)(n8,252,n6)(n8,254,n6)(n8,259,n9)(n9,0,nodeT)(n9,250,nodeT)(n9,252,nodeT)(n9,254,nodeT)(n10,0,n4)(n10,250,n4)(n10,252,n6)(n10,254,n6)(n10,259,n9)(n10,261,n11)(n10,262,n12)(n11,0,nodeT)(n11,250,nodeT)(n11,252,nodeT)(n11,254,nodeT)(n11,259,nodeT)(n12,0,nodeT)(n12,250,nodeT)(n12,252,nodeT)(n12,254,nodeT)(n12,259,nodeT)(n12,261,nodeT)(n13,0,n4)(n13,250,n4)(n13,252,n6)(n13,254,n6)(n13,259,n9)(n13,261,n11)(n13,262,n14)(n14,0,nodeT)(n14,250,nodeT)(n14,252,nodeT)(n14,254,nodeT)(n14,259,nodeT)(n14,261,nodeT)(n14,262,nodeT)(n15,0,n4)(n15,250,n4)(n15,252,n6)(n15,254,n6)(n15,259,n9)(n15,261,n11)(n15,262,n14)(n15,264,n14)(n16,0,n4)(n16,250,n4)(n16,252,n6)(n16,254,n6)(n16,259,n9)(n16,261,n11)(n16,262,n14)(n16,264,n14)(n16,265,n17)(n17,0,nodeT)(n17,250,nodeT)(n17,252,nodeT)(n17,254,nodeT)(n17,259,nodeT)(n17,261,nodeT)(n17,262,nodeT)(n17,264,nodeT)(n18,0,n4)(n18,250,n4)(n18,252,n6)(n18,254,n6)(n18,259,n9)(n18,261,n11)(n18,262,n14)(n18,264,n14)(n18,265,n17)(n18,268,n19)(n19,0,nodeT)(n19,250,nodeT)(n19,252,nodeT)(n19,254,nodeT)(n19,259,nodeT)(n19,261,nodeT)(n19,262,nodeT)(n19,264,nodeT)(n19,265,nodeT)(n20,0,n4)(n20,250,n4)(n20,252,n6)(n20,254,n6)(n20,259,n9)(n20,261,n11)(n20,262,n14)(n20,264,n14)(n20,265,n17)(n20,268,n19)(n20,269,n21)(n21,0,nodeT)(n21,250,nodeT)(n21,252,nodeT)(n21,254,nodeT)(n21,259,nodeT)(n21,261,nodeT)(n21,262,nodeT)(n21,264,nodeT)(n21,265,nodeT)(n21,268,nodeT)(n22,0,n4)(n22,250,n4)(n22,252,n6)(n22,254,n6)(n22,259,n9)(n22,261,n11)(n22,262,n14)(n22,264,n14)(n22,265,n17)(n22,268,n19)(n22,269,n21)(n22,270,n23)(n22,276,n24)(n23,0,nodeT)(n23,250,nodeT)(n23,252,nodeT)(n23,254,nodeT)(n23,259,nodeT)(n23,261,nodeT)(n23,262,nodeT)(n23,264,nodeT)(n23,265,nodeT)(n23,268,nodeT)(n23,269,nodeT)(n24,0,nodeT)(n24,250,nodeT)(n24,252,nodeT)(n24,254,nodeT)(n24,259,nodeT)(n24,261,nodeT)(n24,262,nodeT)(n24,264,nodeT)(n24,265,nodeT)(n24,268,nodeT)(n24,269,nodeT)(n24,270,nodeT)(n25,0,n4)(n25,250,n4)(n25,252,n6)(n25,254,n6)(n25,259,n9)(n25,261,n11)(n25,262,n14)(n25,264,n14)(n25,265,n17)(n25,268,n19)(n25,269,n21)(n25,270,n23)(n25,276,n26)(n26,0,nodeT)(n26,250,nodeT)(n26,252,nodeT)(n26,254,nodeT)(n26,259,nodeT)(n26,261,nodeT)(n26,262,nodeT)(n26,264,nodeT)(n26,265,nodeT)(n26,268,nodeT)(n26,269,nodeT)(n26,270,nodeT)(n26,276,nodeT)(n27,0,n4)(n27,250,n4)(n27,252,n6)(n27,254,n6)(n27,259,n9)(n27,261,n11)(n27,262,n14)(n27,264,n14)(n27,265,n17)(n27,268,n19)(n27,269,n21)(n27,270,n23)(n27,276,n26)(n27,278,n26)(n27,281,n28)(n28,0,nodeT)(n28,250,nodeT)(n28,252,nodeT)(n28,254,nodeT)(n28,259,nodeT)(n28,261,nodeT)(n28,262,nodeT)(n28,264,nodeT)(n28,265,nodeT)(n28,268,nodeT)(n28,269,nodeT)(n28,270,nodeT)(n28,276,nodeT)(n28,278,nodeT)(n28,281,nodeT)(n29,0,n4)(n29,250,n4)(n29,252,n6)(n29,254,n6)(n29,259,n9)(n29,261,n11)(n29,262,n14)(n29,264,n14)(n29,265,n17)(n29,268,n19)(n29,269,n21)(n29,270,n23)(n29,276,n26)(n29,278,n26)(n29,281,n28)(n29,282,n28)(n30,0,n4)(n30,250,n4)(n30,252,n6)(n30,254,n6)(n30,259,n9)(n30,261,n11)(n30,262,n14)(n30,264,n14)(n30,265,n17)(n30,268,n19)(n30,269,n21)(n30,270,n23)(n30,276,n26)(n30,278,n26)(n30,281,n28)(n30,282,n31)(n31,0,nodeT)(n31,250,nodeT)(n31,252,nodeT)(n31,254,nodeT)(n31,259,nodeT)(n31,261,nodeT)(n31,262,nodeT)(n31,264,nodeT)(n31,265,nodeT)(n31,268,nodeT)(n31,269,nodeT)(n31,270,nodeT)(n31,276,nodeT)(n31,278,nodeT)(n31,281,nodeT)(n31,282,nodeT)(n32,0,n4)(n32,250,n4)(n32,252,n6)(n32,254,n6)(n32,259,n9)(n32,261,n11)(n32,262,n14)(n32,264,n14)(n32,265,n17)(n32,268,n19)(n32,269,n21)(n32,270,n23)(n32,276,n26)(n32,278,n26)(n32,281,n28)(n32,282,n31)(n32,283,n31)(n33,0,n4)(n33,250,n4)(n33,252,n6)(n33,254,n6)(n33,259,n9)(n33,261,n11)(n33,262,n14)(n33,264,n14)(n33,265,n17)(n33,268,n19)(n33,269,n21)(n33,270,n23)(n33,276,n26)(n33,278,n26)(n33,281,n28)(n33,282,n31)(n33,283,n31)(n33,285,n34)(n34,0,nodeT)(n34,250,nodeT)(n34,252,nodeT)(n34,254,nodeT)(n34,259,nodeT)(n34,261,nodeT)(n34,262,nodeT)(n34,264,nodeT)(n34,265,nodeT)(n34,268,nodeT)(n34,269,nodeT)(n34,270,nodeT)(n34,276,nodeT)(n34,278,nodeT)(n34,281,nodeT)(n34,282,nodeT)(n34,283,nodeT)(n35,0,n4)(n35,250,n4)(n35,252,n6)(n35,254,n6)(n35,259,n9)(n35,261,n11)(n35,262,n14)(n35,264,n14)(n35,265,n17)(n35,268,n19)(n35,269,n21)(n35,270,n23)(n35,276,n26)(n35,278,n26)(n35,281,n28)(n35,282,n31)(n35,283,n31)(n35,285,n34)(n35,286,n36)(n36,0,nodeT)(n36,250,nodeT)(n36,252,nodeT)(n36,254,nodeT)(n36,259,nodeT)(n36,261,nodeT)(n36,262,nodeT)(n36,264,nodeT)(n36,265,nodeT)(n36,268,nodeT)(n36,269,nodeT)(n36,270,nodeT)(n36,276,nodeT)(n36,278,nodeT)(n36,281,nodeT)(n36,282,nodeT)(n36,283,nodeT)(n36,285,nodeT)(n37,0,n4)(n37,250,n4)(n37,252,n6)(n37,254,n6)(n37,259,n9)(n37,261,n11)(n37,262,n14)(n37,264,n14)(n37,265,n17)(n37,268,n19)(n37,269,n21)(n37,270,n23)(n37,276,n26)(n37,278,n26)(n37,281,n28)(n37,282,n31)(n37,283,n31)(n37,285,n34)(n37,286,n36)(n37,290,n38)(n38,0,nodeT)(n38,250,nodeT)(n38,252,nodeT)(n38,254,nodeT)(n38,259,nodeT)(n38,261,nodeT)(n38,262,nodeT)(n38,264,nodeT)(n38,265,nodeT)(n38,268,nodeT)(n38,269,nodeT)(n38,270,nodeT)(n38,276,nodeT)(n38,278,nodeT)(n38,281,nodeT)(n38,282,nodeT)(n38,283,nodeT)(n38,285,nodeT)(n38,286,nodeT)(n39,0,n4)(n39,250,n4)(n39,252,n6)(n39,254,n6)(n39,259,n9)(n39,261,n11)(n39,262,n14)(n39,264,n14)(n39,265,n17)(n39,268,n19)(n39,269,n21)(n39,270,n23)(n39,276,n26)(n39,278,n26)(n39,281,n28)(n39,282,n31)(n39,283,n31)(n39,285,n34)(n39,286,n36)(n39,290,n38)(n39,296,n40)(n40,0,nodeT)(n40,250,nodeT)(n40,252,nodeT)(n40,254,nodeT)(n40,259,nodeT)(n40,261,nodeT)(n40,262,nodeT)(n40,264,nodeT)(n40,265,nodeT)(n40,268,nodeT)(n40,269,nodeT)(n40,270,nodeT)(n40,276,nodeT)(n40,278,nodeT)(n40,281,nodeT)(n40,282,nodeT)(n40,283,nodeT)(n40,285,nodeT)(n40,286,nodeT)(n40,290,nodeT)(n41,0,n4)(n41,250,n4)(n41,252,n6)(n41,254,n6)(n41,259,n9)(n41,261,n11)(n41,262,n14)(n41,264,n14)(n41,265,n17)(n41,268,n19)(n41,269,n21)(n41,270,n23)(n41,276,n26)(n41,278,n26)(n41,281,n28)(n41,282,n31)(n41,283,n31)(n41,285,n34)(n41,286,n36)(n41,290,n38)(n41,296,n40)(n41,301,n42)(n42,0,nodeT)(n42,250,nodeT)(n42,252,nodeT)(n42,254,nodeT)(n42,259,nodeT)(n42,261,nodeT)(n42,262,nodeT)(n42,264,nodeT)(n42,265,nodeT)(n42,268,nodeT)(n42,269,nodeT)(n42,270,nodeT)(n42,276,nodeT)(n42,278,nodeT)(n42,281,nodeT)(n42,282,nodeT)(n42,283,nodeT)(n42,285,nodeT)(n42,286,nodeT)(n42,290,nodeT)(n42,296,nodeT)(n43,0,n4)(n43,250,n4)(n43,252,n6)(n43,254,n6)(n43,259,n9)(n43,261,n11)(n43,262,n14)(n43,264,n14)(n43,265,n17)(n43,268,n19)(n43,269,n21)(n43,270,n23)(n43,276,n26)(n43,278,n26)(n43,281,n28)(n43,282,n31)(n43,283,n31)(n43,285,n34)(n43,286,n36)(n43,290,n38)(n43,296,n40)(n43,301,n42)(n43,302,n44)(n44,0,nodeT)(n44,250,nodeT)(n44,252,nodeT)(n44,254,nodeT)(n44,259,nodeT)(n44,261,nodeT)(n44,262,nodeT)(n44,264,nodeT)(n44,265,nodeT)(n44,268,nodeT)(n44,269,nodeT)(n44,270,nodeT)(n44,276,nodeT)(n44,278,nodeT)(n44,281,nodeT)(n44,282,nodeT)(n44,283,nodeT)(n44,285,nodeT)(n44,286,nodeT)(n44,290,nodeT)(n44,296,nodeT)(n44,301,nodeT)(n45,0,n4)(n45,250,n4)(n45,252,n6)(n45,254,n6)(n45,259,n9)(n45,261,n11)(n45,262,n14)(n45,264,n14)(n45,265,n17)(n45,268,n19)(n45,269,n21)(n45,270,n23)(n45,276,n26)(n45,278,n26)(n45,281,n28)(n45,282,n31)(n45,283,n31)(n45,285,n34)(n45,286,n36)(n45,290,n38)(n45,296,n40)(n45,301,n42)(n45,302,n44)(n45,305,n46)(n46,0,nodeT)(n46,250,nodeT)(n46,252,nodeT)(n46,254,nodeT)(n46,259,nodeT)(n46,261,nodeT)(n46,262,nodeT)(n46,264,nodeT)(n46,265,nodeT)(n46,268,nodeT)(n46,269,nodeT)(n46,270,nodeT)(n46,276,nodeT)(n46,278,nodeT)(n46,281,nodeT)(n46,282,nodeT)(n46,283,nodeT)(n46,285,nodeT)(n46,286,nodeT)(n46,290,nodeT)(n46,296,nodeT)(n46,301,nodeT)(n46,302,nodeT)(n47,0,n4)(n47,250,n4)(n47,252,n6)(n47,254,n6)(n47,259,n9)(n47,261,n11)(n47,262,n14)(n47,264,n14)(n47,265,n17)(n47,268,n19)(n47,269,n21)(n47,270,n23)(n47,276,n26)(n47,278,n26)(n47,281,n28)(n47,282,n31)(n47,283,n31)(n47,285,n34)(n47,286,n36)(n47,290,n38)(n47,296,n40)(n47,301,n42)(n47,302,n44)(n47,305,n46)(n47,327,n48)(n48,0,nodeT)(n48,250,nodeT)(n48,252,nodeT)(n48,254,nodeT)(n48,259,nodeT)(n48,261,nodeT)(n48,262,nodeT)(n48,264,nodeT)(n48,265,nodeT)(n48,268,nodeT)(n48,269,nodeT)(n48,270,nodeT)(n48,276,nodeT)(n48,278,nodeT)(n48,281,nodeT)(n48,282,nodeT)(n48,283,nodeT)(n48,285,nodeT)(n48,286,nodeT)(n48,290,nodeT)(n48,296,nodeT)(n48,301,nodeT)(n48,302,nodeT)(n48,305,nodeT)(n49,0,n4)(n49,250,n4)(n49,252,n6)(n49,254,n6)(n49,259,n9)(n49,261,n11)(n49,262,n14)(n49,264,n14)(n49,265,n17)(n49,268,n19)(n49,269,n21)(n49,270,n23)(n49,276,n26)(n49,278,n26)(n49,281,n28)(n49,282,n31)(n49,283,n31)(n49,285,n34)(n49,286,n36)(n49,290,n38)(n49,296,n40)(n49,301,n42)(n49,302,n44)(n49,305,n46)(n49,327,n48)(n49,328,n50)(n50,0,nodeT)(n50,250,nodeT)(n50,252,nodeT)(n50,254,nodeT)(n50,259,nodeT)(n50,261,nodeT)(n50,262,nodeT)(n50,264,nodeT)(n50,265,nodeT)(n50,268,nodeT)(n50,269,nodeT)(n50,270,nodeT)(n50,276,nodeT)(n50,278,nodeT)(n50,281,nodeT)(n50,282,nodeT)(n50,283,nodeT)(n50,285,nodeT)(n50,286,nodeT)(n50,290,nodeT)(n50,296,nodeT)(n50,301,nodeT)(n50,302,nodeT)(n50,305,nodeT)(n50,327,nodeT)(n51,0,n4)(n51,250,n4)(n51,252,n6)(n51,254,n6)(n51,259,n9)(n51,261,n11)(n51,262,n14)(n51,264,n14)(n51,265,n17)(n51,268,n19)(n51,269,n21)(n51,270,n23)(n51,276,n26)(n51,278,n26)(n51,281,n28)(n51,282,n31)(n51,283,n31)(n51,285,n34)(n51,286,n36)(n51,290,n38)(n51,296,n40)(n51,301,n42)(n51,302,n44)(n51,305,n46)(n51,327,n48)(n51,328,n50)(n51,334,n52)(n52,0,nodeT)(n52,250,nodeT)(n52,252,nodeT)(n52,254,nodeT)(n52,259,nodeT)(n52,261,nodeT)(n52,262,nodeT)(n52,264,nodeT)(n52,265,nodeT)(n52,268,nodeT)(n52,269,nodeT)(n52,270,nodeT)(n52,276,nodeT)(n52,278,nodeT)(n52,281,nodeT)(n52,282,nodeT)(n52,283,nodeT)(n52,285,nodeT)(n52,286,nodeT)(n52,290,nodeT)(n52,296,nodeT)(n52,301,nodeT)(n52,302,nodeT)(n52,305,nodeT)(n52,327,nodeT)(n52,328,nodeT)(n53,0,n4)(n53,250,n4)(n53,252,n6)(n53,254,n6)(n53,259,n9)(n53,261,n11)(n53,262,n14)(n53,264,n14)(n53,265,n17)(n53,268,n19)(n53,269,n21)(n53,270,n23)(n53,276,n26)(n53,278,n26)(n53,281,n28)(n53,282,n31)(n53,283,n31)(n53,285,n34)(n53,286,n36)(n53,290,n38)(n53,296,n40)(n53,301,n42)(n53,302,n44)(n53,305,n46)(n53,327,n48)(n53,328,n50)(n53,334,n48)(n53,335,n48)(n54,0,n4)(n54,250,n4)(n54,252,n6)(n54,254,n6)(n54,259,n9)(n54,261,n11)(n54,262,n14)(n54,264,n14)(n54,265,n17)(n54,268,n19)(n54,269,n21)(n54,270,n23)(n54,276,n26)(n54,278,n26)(n54,281,n28)(n54,282,n31)(n54,283,n31)(n54,285,n34)(n54,286,n36)(n54,290,n38)(n54,296,n40)(n54,301,n42)(n54,302,n44)(n54,305,n46)(n54,327,n48)(n54,328,n48)(n54,334,n48)(n54,335,n48)(n54,340,n48)(n55,0,n4)(n55,250,n4)(n55,252,n6)(n55,254,n6)(n55,259,n9)(n55,261,n11)(n55,262,n14)(n55,264,n14)(n55,265,n17)(n55,268,n19)(n55,269,n21)(n55,270,n23)(n55,276,n26)(n55,278,n26)(n55,281,n28)(n55,282,n31)(n55,283,n31)(n55,285,n34)(n55,286,n36)(n55,290,n38)(n55,296,n40)(n55,301,n42)(n55,302,n44)(n55,305,n46)(n55,327,n48)(n55,328,n48)(n55,334,n48)(n55,335,n48)(n55,340,n48)(n55,347,n44)(n56,0,n4)(n56,250,n4)(n56,252,n6)(n56,254,n6)(n56,259,n9)(n56,261,n11)(n56,262,n14)(n56,264,n14)(n56,265,n17)(n56,268,n19)(n56,269,n21)(n56,270,n23)(n56,276,n26)(n56,278,n26)(n56,281,n28)(n56,282,n31)(n56,283,n31)(n56,285,n34)(n56,286,n36)(n56,290,n38)(n56,296,n40)(n56,301,n42)(n56,302,n44)(n56,305,n46)(n56,327,n48)(n56,328,n48)(n56,334,n48)(n56,335,n48)(n56,340,n48)(n56,347,n42)(n56,352,n40)(n57,0,n4)(n57,250,n4)(n57,252,n6)(n57,254,n6)(n57,259,n9)(n57,261,n11)(n57,262,n14)(n57,264,n14)(n57,265,n17)(n57,268,n19)(n57,269,n21)(n57,270,n23)(n57,276,n26)(n57,278,n26)(n57,281,n28)(n57,282,n31)(n57,283,n31)(n57,285,n34)(n57,286,n36)(n57,290,n38)(n57,296,n40)(n57,301,n42)(n57,302,n44)(n57,305,n46)(n57,327,n48)(n57,328,n48)(n57,334,n48)(n57,335,n48)(n57,340,n46)(n57,347,n40)(n57,352,n40)(n57,355,n38)(n58,0,n4)(n58,250,n4)(n58,252,n6)(n58,254,n6)(n58,259,n9)(n58,261,n11)(n58,262,n14)(n58,264,n14)(n58,265,n17)(n58,268,n19)(n58,269,n21)(n58,270,n23)(n58,276,n26)(n58,278,n26)(n58,281,n28)(n58,282,n31)(n58,283,n31)(n58,285,n34)(n58,286,n36)(n58,290,n38)(n58,296,n40)(n58,301,n42)(n58,302,n44)(n58,305,n46)(n58,327,n48)(n58,328,n48)(n58,334,n48)(n58,335,n48)(n58,340,n42)(n58,347,n40)(n58,352,n38)(n58,355,n36)(n58,358,n31)(n59,0,n4)(n59,250,n4)(n59,252,n6)(n59,254,n6)(n59,259,n9)(n59,261,n11)(n59,262,n14)(n59,264,n14)(n59,265,n17)(n59,268,n19)(n59,269,n21)(n59,270,n23)(n59,276,n26)(n59,278,n26)(n59,281,n28)(n59,282,n31)(n59,283,n31)(n59,285,n34)(n59,286,n36)(n59,290,n38)(n59,296,n40)(n59,301,n42)(n59,302,n44)(n59,305,n46)(n59,327,n48)(n59,328,n48)(n59,334,n48)(n59,335,n46)(n59,340,n42)(n59,347,n40)(n59,352,n38)(n59,355,n34)(n59,358,n28)(n59,360,n60)(n60,0,nodeT)(n60,250,nodeT)(n60,252,nodeT)(n60,254,nodeT)(n60,259,nodeT)(n60,261,nodeT)(n60,262,nodeT)(n60,264,nodeT)(n60,265,nodeT)(n60,268,nodeT)(n60,269,nodeT)(n60,270,nodeT)(n60,276,nodeT)(n60,278,nodeT)(n61,0,n4)(n61,250,n4)(n61,252,n6)(n61,254,n6)(n61,259,n9)(n61,261,n11)(n61,262,n14)(n61,264,n14)(n61,265,n17)(n61,268,n19)(n61,269,n21)(n61,270,n23)(n61,276,n26)(n61,278,n26)(n61,281,n28)(n61,282,n31)(n61,283,n31)(n61,285,n34)(n61,286,n36)(n61,290,n38)(n61,296,n40)(n61,301,n42)(n61,302,n44)(n61,305,n46)(n61,327,n44)(n61,328,n42)(n61,334,n40)(n61,335,n40)(n61,340,n38)(n61,347,n28)(n61,352,n26)(n61,355,n24)(n61,358,n24)(n61,360,n21)(n61,361,n19)(n61,372,n9)(n62,0,n4)(n62,250,n4)(n62,252,n6)(n62,254,n6)(n62,259,n9)(n62,261,n11)(n62,262,n14)(n62,264,n14)(n62,265,n17)(n62,268,n19)(n62,269,n21)(n62,270,n23)(n62,276,n26)(n62,278,n26)(n62,281,n28)(n62,282,n31)(n62,283,n31)(n62,285,n34)(n62,286,n36)(n62,290,n38)(n62,296,n40)(n62,301,n42)(n62,302,n44)(n62,305,n46)(n62,327,n40)(n62,328,n40)(n62,334,n38)(n62,335,n36)(n62,340,n60)(n62,347,n24)(n62,352,n21)(n62,355,n19)(n62,358,n14)(n62,360,n11)(n62,361,n11)(n62,372,n4)(n62,380,n4)(n63,0,n4)(n63,250,n4)(n63,252,n6)(n63,254,n6)(n63,259,n9)(n63,261,n11)(n63,262,n14)(n63,264,n14)(n63,265,n17)(n63,268,n19)(n63,269,n21)(n63,270,n23)(n63,276,n26)(n63,278,n26)(n63,281,n28)(n63,282,n31)(n63,283,n31)(n63,285,n34)(n63,286,n36)(n63,290,n38)(n63,296,n40)(n63,301,n42)(n63,302,n44)(n63,305,n46)(n63,327,n36)(n63,328,n34)(n63,334,n60)(n63,335,n26)(n63,340,n24)(n63,347,n19)(n63,352,n11)(n63,355,n9)(n63,358,n9)(n63,360,n6)(n63,361,n64)(n63,372,n4)(n63,380,n4)(n64,0,nodeT)(n64,250,nodeT)(n65,0,n4)(n65,250,n4)(n65,252,n6)(n65,254,n6)(n65,259,n9)(n65,261,n11)(n65,262,n14)(n65,264,n14)(n65,265,n17)(n65,268,n19)(n65,269,n21)(n65,270,n23)(n65,276,n26)(n65,278,n26)(n65,281,n28)(n65,282,n31)(n65,283,n31)(n65,285,n34)(n65,286,n36)(n65,290,n38)(n65,296,n40)(n65,301,n42)(n65,302,n44)(n65,305,n46)(n65,327,n34)(n65,328,n34)(n65,334,n26)(n65,335,n26)(n65,340,n24)(n65,347,n17)(n65,352,n11)(n65,355,n9)(n65,358,n6)(n65,360,n64)(n65,361,n64)(n65,372,n4)(n65,380,n4)(n65,388,n4)(n66,0,n4)(n66,250,n4)(n66,252,n6)(n66,254,n6)(n66,259,n9)(n66,261,n11)(n66,262,n14)(n66,264,n14)(n66,265,n17)(n66,268,n19)(n66,269,n21)(n66,270,n23)(n66,276,n26)(n66,278,n26)(n66,281,n28)(n66,282,n31)(n66,283,n31)(n66,285,n34)(n66,286,n36)(n66,290,n38)(n66,296,n40)(n66,301,n42)(n66,302,n44)(n66,305,n42)(n66,327,n26)(n66,328,n26)(n66,334,n24)(n66,335,n23)(n66,340,n17)(n66,347,n9)(n66,352,n6)(n66,355,n4)(n66,358,n4)(n66,360,n4)(n66,361,n4)(n66,372,n4)(n66,380,n4)(n66,388,n4)(n66,389,n4)(n67,0,n4)(n67,250,n4)(n67,252,n6)(n67,254,n6)(n67,259,n9)(n67,261,n11)(n67,262,n14)(n67,264,n14)(n67,265,n17)(n67,268,n19)(n67,269,n21)(n67,270,n23)(n67,276,n26)(n67,278,n26)(n67,281,n28)(n67,282,n31)(n67,283,n31)(n67,285,n34)(n67,286,n36)(n67,290,n38)(n67,296,n38)(n67,301,n34)(n67,302,n31)(n67,305,n60)(n67,327,n9)(n67,328,n9)(n67,334,n64)(n67,335,n4)(n67,340,n4)(n67,347,n4)(n67,352,n4)(n67,355,n4)(n67,358,n4)(n67,360,n4)(n67,361,n4)(n67,372,n4)(n67,380,n4)(n67,388,n4)(n67,389,n4)(n67,396,n4)(n68,0,n4)(n68,250,n4)(n68,252,n6)(n68,254,n6)(n68,259,n9)(n68,261,n11)(n68,262,n14)(n68,264,n14)(n68,265,n17)(n68,268,n19)(n68,269,n21)(n68,270,n23)(n68,276,n26)(n68,278,n26)(n68,281,n28)(n68,282,n31)(n68,283,n31)(n68,285,n34)(n68,286,n36)(n68,290,n38)(n68,296,n31)(n68,301,n26)(n68,302,n26)(n68,305,n24)(n68,327,n64)(n68,328,n64)(n68,334,n4)(n68,335,n4)(n68,340,n4)(n68,347,n4)(n68,352,n4)(n68,355,n4)(n68,358,n4)(n68,360,n4)(n68,361,n4)(n68,372,n4)(n68,380,n4)(n68,388,n4)(n68,389,n4)(n68,396,n4)(n68,416,n4)(n69,0,n4)(n69,250,n4)(n69,252,n6)(n69,254,n6)(n69,259,n9)(n69,261,n11)(n69,262,n14)(n69,264,n14)(n69,265,n17)(n69,268,n19)(n69,269,n21)(n69,270,n23)(n69,276,n26)(n69,278,n26)(n69,281,n28)(n69,282,n31)(n69,283,n31)(n69,285,n34)(n69,286,n31)(n69,290,n60)(n69,296,n24)(n69,301,n19)(n69,302,n19)(n69,305,n14)(n69,327,n4)(n69,328,n4)(n69,334,n4)(n69,335,n4)(n69,340,n4)(n69,347,n4)(n69,352,n4)(n69,355,n4)(n69,358,n4)(n69,360,n4)(n69,361,n4)(n69,372,n4)(n69,380,n4)(n69,388,n4)(n69,389,n4)(n69,396,n4)(n69,416,n4)(n69,422,n4)(n70,0,n4)(n70,250,n4)(n70,252,n6)(n70,254,n6)(n70,259,n9)(n70,261,n11)(n70,262,n14)(n70,264,n14)(n70,265,n17)(n70,268,n19)(n70,269,n21)(n70,270,n23)(n70,276,n26)(n70,278,n26)(n70,281,n28)(n70,282,n31)(n70,283,n31)(n70,285,n31)(n70,286,n28)(n70,290,n26)(n70,296,n24)(n70,301,n19)(n70,302,n19)(n70,305,n14)(n70,327,n4)(n70,328,n4)(n70,334,n4)(n70,335,n4)(n70,340,n4)(n70,347,n4)(n70,352,n4)(n70,355,n4)(n70,358,n4)(n70,360,n4)(n70,361,n4)(n70,372,n4)(n70,380,n4)(n70,388,n4)(n70,389,n4)(n70,396,n4)(n70,416,n4)(n70,422,n4)(n70,432,n4)(n71,0,n4)(n71,250,n4)(n71,252,n6)(n71,254,n6)(n71,259,n9)(n71,261,n11)(n71,262,n14)(n71,264,n14)(n71,265,n17)(n71,268,n19)(n71,269,n21)(n71,270,n21)(n71,276,n14)(n71,278,n11)(n71,281,n9)(n71,282,n9)(n71,283,n9)(n71,285,n6)(n71,286,n6)(n71,290,n4)(n71,296,n4)(n71,301,n4)(n71,302,n4)(n71,305,n4)(n71,327,n4)(n71,328,n4)(n71,334,n4)(n71,335,n4)(n71,340,n4)(n71,347,n4)(n71,352,n4)(n71,355,n4)(n71,358,n4)(n71,360,n4)(n71,361,n4)(n71,372,n4)(n71,380,n4)(n71,388,n4)(n71,389,n4)(n71,396,n4)(n71,416,n4)(n71,422,n4)(n71,432,n4)(n71,433,n4)(n72,0,n4)(n72,250,n4)(n72,252,n6)(n72,254,n6)(n72,259,n9)(n72,261,n11)(n72,262,n14)(n72,264,n14)(n72,265,n17)(n72,268,n19)(n72,269,n21)(n72,270,n19)(n72,276,n12)(n72,278,n11)(n72,281,n9)(n72,282,n9)(n72,283,n9)(n72,285,n6)(n72,286,n64)(n72,290,n4)(n72,296,n4)(n72,301,n4)(n72,302,n4)(n72,305,n4)(n72,327,n4)(n72,328,n4)(n72,334,n4)(n72,335,n4)(n72,340,n4)(n72,347,n4)(n72,352,n4)(n72,355,n4)(n72,358,n4)(n72,360,n4)(n72,361,n4)(n72,372,n4)(n72,380,n4)(n72,388,n4)(n72,389,n4)(n72,396,n4)(n72,416,n4)(n72,422,n4)(n72,432,n4)(n72,433,n4)(n72,462,n4)(n73,0,n4)(n73,250,n4)(n73,252,n6)(n73,254,n6)(n73,259,n9)(n73,261,n11)(n73,262,n14)(n73,264,n14)(n73,265,n17)(n73,268,n14)(n73,269,n14)(n73,270,n12)(n73,276,n9)(n73,278,n6)(n73,281,n64)(n73,282,n4)(n73,283,n4)(n73,285,n4)(n73,286,n4)(n73,290,n4)(n73,296,n4)(n73,301,n4)(n73,302,n4)(n73,305,n4)(n73,327,n4)(n73,328,n4)(n73,334,n4)(n73,335,n4)(n73,340,n4)(n73,347,n4)(n73,352,n4)(n73,355,n4)(n73,358,n4)(n73,360,n4)(n73,361,n4)(n73,372,n4)(n73,380,n4)(n73,388,n4)(n73,389,n4)(n73,396,n4)(n73,416,n4)(n73,422,n4)(n73,432,n4)(n73,433,n4)(n73,462,n4)(n73,463,n4)(n74,0,n4)(n74,250,n4)(n74,252,n6)(n74,254,n6)(n74,259,n9)(n74,261,n9)(n74,262,n9)(n74,264,n6)(n74,265,n6)(n74,268,n4)(n74,269,n4)(n74,270,n4)(n74,276,n4)(n74,278,n4)(n74,281,n4)(n74,282,n4)(n74,283,n4)(n74,285,n4)(n74,286,n4)(n74,290,n4)(n74,296,n4)(n74,301,n4)(n74,302,n4)(n74,305,n4)(n74,327,n4)(n74,328,n4)(n74,334,n4)(n74,335,n4)(n74,340,n4)(n74,347,n4)(n74,352,n4)(n74,355,n4)(n74,358,n4)(n74,360,n4)(n74,361,n4)(n74,372,n4)(n74,380,n4)(n74,388,n4)(n74,389,n4)(n74,396,n4)(n74,416,n4)(n74,422,n4)(n74,432,n4)(n74,433,n4)(n74,462,n4)(n74,463,n4)(n74,469,n4)(n75,0,n4)(n75,250,n4)(n75,252,n6)(n75,254,n6)(n75,259,n9)(n75,261,n9)(n75,262,n9)(n75,264,n6)(n75,265,n64)(n75,268,n4)(n75,269,n4)(n75,270,n4)(n75,276,n4)(n75,278,n4)(n75,281,n4)(n75,282,n4)(n75,283,n4)(n75,285,n4)(n75,286,n4)(n75,290,n4)(n75,296,n4)(n75,301,n4)(n75,302,n4)(n75,305,n4)(n75,327,n4)(n75,328,n4)(n75,334,n4)(n75,335,n4)(n75,340,n4)(n75,347,n4)(n75,352,n4)(n75,355,n4)(n75,358,n4)(n75,360,n4)(n75,361,n4)(n75,372,n4)(n75,380,n4)(n75,388,n4)(n75,389,n4)(n75,396,n4)(n75,416,n4)(n75,422,n4)(n75,432,n4)(n75,433,n4)(n75,462,n4)(n75,463,n4)(n75,469,n4)(n75,483,n4)(n76,0,n4)(n76,250,n4)(n76,252,n6)(n76,254,n6)(n76,259,n6)(n76,261,n64)(n76,262,n4)(n76,264,n4)(n76,265,n4)(n76,268,n4)(n76,269,n4)(n76,270,n4)(n76,276,n4)(n76,278,n4)(n76,281,n4)(n76,282,n4)(n76,283,n4)(n76,285,n4)(n76,286,n4)(n76,290,n4)(n76,296,n4)(n76,301,n4)(n76,302,n4)(n76,305,n4)(n76,327,n4)(n76,328,n4)(n76,334,n4)(n76,335,n4)(n76,340,n4)(n76,347,n4)(n76,352,n4)(n76,355,n4)(n76,358,n4)(n76,360,n4)(n76,361,n4)(n76,372,n4)(n76,380,n4)(n76,388,n4)(n76,389,n4)(n76,396,n4)(n76,416,n4)(n76,422,n4)(n76,432,n4)(n76,433,n4)(n76,462,n4)(n76,463,n4)(n76,469,n4)(n76,483,n4)(n76,484,n4)(n77,0,n4)(n77,250,n4)(n77,252,n6)(n77,254,n64)(n77,259,n4)(n77,261,n4)(n77,262,n4)(n77,264,n4)(n77,265,n4)(n77,268,n4)(n77,269,n4)(n77,270,n4)(n77,276,n4)(n77,278,n4)(n77,281,n4)(n77,282,n4)(n77,283,n4)(n77,285,n4)(n77,286,n4)(n77,290,n4)(n77,296,n4)(n77,301,n4)(n77,302,n4)(n77,305,n4)(n77,327,n4)(n77,328,n4)(n77,334,n4)(n77,335,n4)(n77,340,n4)(n77,347,n4)(n77,352,n4)(n77,355,n4)(n77,358,n4)(n77,360,n4)(n77,361,n4)(n77,372,n4)(n77,380,n4)(n77,388,n4)(n77,389,n4)(n77,396,n4)(n77,416,n4)(n77,422,n4)(n77,432,n4)(n77,433,n4)(n77,462,n4)(n77,463,n4)(n77,469,n4)(n77,483,n4)(n77,484,n4)(n77,489,n4) </transitions>
      </mdd>
      <args> b[0][] </args>
      <args> b[1][] </args>
      <args> b[2][] </args>
      <args> b[3][] </args>
      <args> b[4][] </args>
      <args> b[5][] </args>
      <args> b[6][] </args>
      <args> b[7][] </args>
      <args> b[8][] </args>
      <args> b[9][] </args>
      <args> b[10][] </args>
      <args> b[11][] </args>
      <args> b[12][] </args>
      <args> b[13][] </args>
      <args> b[14][] </args>
      <args> b[15][] </args>
      <args> b[16][] </args>
      <args> b[17][] </args>
      <args> b[18][] </args>
      <args> b[19][] </args>
      <args> b[20][] </args>
      <args> b[21][] </args>
      <args> b[22][] </args>
      <args> b[23][] </args>
    </group>
    <cardinality>
      <list> b[][] </list>
      <values> 0 250 252 254 259 261 262 264 265 268 269 270 276 278 281 282 283 285 286 290 296 301 302 305 327 328 334 335 340 347 352 355 358 360 361 372 380 388 389 396 416 422 432 433 462 463 469 483 484 489 496 </values>
      <occurs> 12 1 4 1 1 1 2 1 1 1 1 1 2 1 3 2 1 1 1 1 1 1 1 1 1 1 1 1 1 1 1 1 1 1 1 2 2 1 1 1 1 1 1 1 1 1 1 1 1 1 1 </occurs>
    </cardinality>
    <lex class="symmetryBreaking">
      <list> b[0][] </list>
      <list> b[1][] </list>
      <list> b[2][] </list>
      <list> b[3][] </list>
      <list> b[4][] </list>
      <list> b[5][] </list>
      <list> b[6][] </list>
      <list> b[7][] </list>
      <list> b[8][] </list>
      <list> b[9][] </list>
      <list> b[10][] </list>
      <list> b[11][] </list>
      <list> b[12][] </list>
      <list> b[13][] </list>
      <list> b[14][] </list>
      <list> b[15][] </list>
      <list> b[16][] </list>
      <list> b[17][] </list>
      <list> b[18][] </list>
      <list> b[19][] </list>
      <list> b[20][] </list>
      <list> b[21][] </list>
      <list> b[22][] </list>
      <list> b[23][] </list>
      <operator> ge </operator>
    </lex>
    <count>
      <list> b[][0] </list>
      <values> 0 </values>
      <condition> (eq,x) </condition>
    </count>
  </constraints>
  <objectives>
    <maximize> x </maximize>
  </objectives>
</instance>
